
  32    4
  10   10   10   10

   0   0   0   0   0   1 2 
  10   1   1   0   1   2 7 3 
   7   4   0   1   4   2 11 4 
   2   3   6   0   5   2 16 5 
   1   2   0   4   2   1 6 
   5   0   4   4   4   2 22 8 
   8   3   0   2   2   1 8 
   1   3   4   0   4   1 9 
  10   2   0   6   3   2 15 10 
   8   0   6   5   4   1 12 
   7   0   4   4   9   3 22 21 14 
   8   5   2   5   0   2 21 13 
   1   4   7   0   2   1 14 
   2   2   8   0   8   2 27 17 
   3   3   3   0   5   2 27 18 
   2   3   6   2   0   2 27 18 
   5   8   2   4   0   1 18 
   9   1   3   4   0   1 19 
   9   0   2  10   3   2 31 20 
   4   9   4   0   3   2 29 23 
   2   5   2   0   4   2 29 23 
   3   2   6   2   0   2 29 25 
   7   5   5   0   8   1 24 
   5   4   0   4   4   1 25 
  10   0   4   2   4   1 26 
   1   0   3   3   2   1 28 
   9   7   4   6   0   1 28 
   2   4   3   0   4   1 30 
  10   7   4   0   5   1 30 
   7   5   6   2   0   1 32
   2   0   1   6   2   1 32
   0   0   0   0   0   0 
